NAME (null)_copy
ROWS
 N  OBJ
 E  z_0_def 
 E  z_1_def 
 E  z_2_def 
 E  z_3_def 
 E  z_4_def 
 E  z_5_def 
 L  commonCons_0
 L  commonCons_1
 L  commonCons_2
 L  commonCons_3
 L  commonCons_4
 L  commonCons_5
 L  commonCons_6
 E  uv_sum_0
 E  uv_sum_1
 E  uv_sum_2
 E  uv_sum_3
 E  uv_sum_4
 E  uv_sum_5
 L  z_ind_0_L_Mu_0
 L  x_ind_0_L_MuDash_0
 L  z_ind_1_L_Mu_1
 L  x_ind_1_L_MuDash_1
 L  z_ind_2_L_Mu_2
 L  x_ind_2_L_MuDash_2
 L  z_ind_3_L_Mu_3
 L  x_ind_3_L_MuDash_3
 L  z_ind_4_L_Mu_4
 L  x_ind_4_L_MuDash_4
 L  z_ind_5_L_Mu_5
 L  x_ind_5_L_MuDash_5
COLUMNS
    x_0       OBJ       1
    x_0       z_0_def   2
    x_0       z_1_def   0.9
    x_0       z_2_def   0.9
    x_0       z_3_def   -1
    x_0       commonCons_3  -1
    x_0       commonCons_4  -0.9
    x_0       x_ind_0_L_MuDash_0  1
    x_1       OBJ       1
    x_1       z_0_def   0.9
    x_1       z_1_def   1.9000000000000001e+00
    x_1       z_2_def   0.9
    x_1       z_4_def   -1
    x_1       commonCons_3  -1
    x_1       commonCons_4  -0.9
    x_1       x_ind_1_L_MuDash_1  1
    x_2       OBJ       1
    x_2       z_0_def   0.9
    x_2       z_1_def   0.9
    x_2       z_2_def   2.3
    x_2       z_5_def   -1
    x_2       commonCons_3  -1
    x_2       commonCons_4  -0.9
    x_2       x_ind_2_L_MuDash_2  1
    x_3       OBJ       1
    x_3       z_0_def   0.9
    x_3       z_1_def   0.9
    x_3       z_2_def   0.9
    x_3       commonCons_3  -1
    x_3       commonCons_4  -0.9
    x_3       commonCons_5  -1
    x_3       commonCons_6  1
    x_4       OBJ       1
    x_4       z_0_def   -0.9
    x_4       z_1_def   -0.9
    x_4       z_2_def   -0.9
    x_4       commonCons_3  1
    x_4       commonCons_4  0.9
    x_5       OBJ       1
    x_5       commonCons_5  1
    x_5       commonCons_6  -1
    x_6       OBJ       1
    x_6       commonCons_5  1
    x_6       commonCons_6  -1
    x_7       OBJ       1
    x_7       commonCons_5  1
    x_7       commonCons_6  -1
    x_8       OBJ       1
    x_9       OBJ       1
    x_10      OBJ       1
    x_11      OBJ       1
    x_11      z_0_def   1
    x_11      commonCons_0  1
    x_12      OBJ       1
    x_12      z_1_def   1
    x_12      commonCons_1  1
    x_13      OBJ       1
    x_13      z_2_def   1
    x_13      commonCons_2  1
    x_14      OBJ       1
    x_15      OBJ       1
    x_16      OBJ       1
    x_17      OBJ       1
    x_18      OBJ       1
    x_19      OBJ       1
    x_20      OBJ       1
    x_21      OBJ       1
    x_22      OBJ       1
    x_23      OBJ       1
    x_24      OBJ       1
    x_25      OBJ       1
    x_26      OBJ       1
    x_27      OBJ       1
    x_28      OBJ       1
    x_29      OBJ       1
    x_30      OBJ       1
    x_31      OBJ       1
    x_32      OBJ       1
    x_33      OBJ       1
    x_34      OBJ       1
    x_35      OBJ       1
    x_36      OBJ       1
    x_37      OBJ       1
    x_38      OBJ       1
    x_39      OBJ       1
    x_40      OBJ       1
    x_41      OBJ       1
    x_42      OBJ       1
    x_43      OBJ       1
    x_44      OBJ       1
    x_45      OBJ       1
    x_46      OBJ       1
    x_47      OBJ       1
    x_48      OBJ       1
    x_49      OBJ       1
    x_50      OBJ       1
    x_51      OBJ       1
    x_52      OBJ       1
    x_53      OBJ       1
    x_54      OBJ       1
    x_55      OBJ       1
    x_56      OBJ       1
    x_57      OBJ       1
    x_57      z_0_def   1
    x_57      x_ind_3_L_MuDash_3  1
    x_58      OBJ       1
    x_58      z_1_def   1
    x_58      x_ind_4_L_MuDash_4  1
    x_59      OBJ       1
    x_59      z_2_def   1
    x_59      x_ind_5_L_MuDash_5  1
    z_0       OBJ       1
    z_0       z_0_def   -1
    z_0       z_ind_0_L_Mu_0  1
    z_1       OBJ       1
    z_1       z_1_def   -1
    z_1       z_ind_1_L_Mu_1  1
    z_2       OBJ       1
    z_2       z_2_def   -1
    z_2       z_ind_2_L_Mu_2  1
    z_3       OBJ       1
    z_3       z_3_def   -1
    z_3       z_ind_3_L_Mu_3  1
    z_4       OBJ       1
    z_4       z_4_def   -1
    z_4       z_ind_4_L_Mu_4  1
    z_5       OBJ       1
    z_5       z_5_def   -1
    z_5       z_ind_5_L_Mu_5  1
    MARKER    'MARKER'                 'INTORG'
    u_0       uv_sum_0  1
    u_1       uv_sum_1  1
    u_2       uv_sum_2  1
    u_3       uv_sum_3  1
    u_4       uv_sum_4  1
    u_5       uv_sum_5  1
    v_0       uv_sum_0  1
    v_1       uv_sum_1  1
    v_2       uv_sum_2  1
    v_3       uv_sum_3  1
    v_4       uv_sum_4  1
    v_5       uv_sum_5  1
    MARKER    'MARKER'                 'INTEND'
RHS
    RHS1      z_0_def   105
    RHS1      z_1_def   75
    RHS1      z_2_def   175
    RHS1      z_3_def   -100
    RHS1      z_4_def   -100
    RHS1      z_5_def   -50
    RHS1      commonCons_0  300
    RHS1      commonCons_1  200
    RHS1      commonCons_2  25
    RHS1      commonCons_4  -65
    RHS1      uv_sum_0  1
    RHS1      uv_sum_1  1
    RHS1      uv_sum_2  1
    RHS1      uv_sum_3  1
    RHS1      uv_sum_4  1
    RHS1      uv_sum_5  1
    RHS1      z_ind_0_L_Mu_0  0
    RHS1      x_ind_0_L_MuDash_0  0
    RHS1      z_ind_1_L_Mu_1  0
    RHS1      x_ind_1_L_MuDash_1  0
    RHS1      z_ind_2_L_Mu_2  0
    RHS1      x_ind_2_L_MuDash_2  0
    RHS1      z_ind_3_L_Mu_3  0
    RHS1      x_ind_3_L_MuDash_3  0
    RHS1      z_ind_4_L_Mu_4  0
    RHS1      x_ind_4_L_MuDash_4  0
    RHS1      z_ind_5_L_Mu_5  0
    RHS1      x_ind_5_L_MuDash_5  0
BOUNDS
 BV BND1      u_0     
 BV BND1      u_1     
 BV BND1      u_2     
 BV BND1      u_3     
 BV BND1      u_4     
 BV BND1      u_5     
 BV BND1      v_0     
 BV BND1      v_1     
 BV BND1      v_2     
 BV BND1      v_3     
 BV BND1      v_4     
 BV BND1      v_5     
INDICATORS
 IF z_ind_0_L_Mu_0  u_0       1
 IF x_ind_0_L_MuDash_0  v_0       1
 IF z_ind_1_L_Mu_1  u_1       1
 IF x_ind_1_L_MuDash_1  v_1       1
 IF z_ind_2_L_Mu_2  u_2       1
 IF x_ind_2_L_MuDash_2  v_2       1
 IF z_ind_3_L_Mu_3  u_3       1
 IF x_ind_3_L_MuDash_3  v_3       1
 IF z_ind_4_L_Mu_4  u_4       1
 IF x_ind_4_L_MuDash_4  v_4       1
 IF z_ind_5_L_Mu_5  u_5       1
 IF x_ind_5_L_MuDash_5  v_5       1
ENDATA
